9321
7940
7940
7940
7940
7940
7940
7940
7940
7940
7940
7940
7940
7940
7940
7940
7940
7940
7940
7940
7940
7940
7755
7755
7755
7755
7755
7755
7755
7755
7755
7755
7755
7755
7755
7755
7755
7755
7755
7755
7755
7755
7755
7755
7755
7755
7755
7755
7755
7755
7755
7755
7755
7755
7755
7755
7755
7755
7755
7755
7755
7755
7755
7755
7755
7755
7755
7755
7755
7755
7755
7755
7755
7755
7755
7755
7755
7755
7755
7755
7755
7755
7755
7755
7755
7755
7755
7755
7755
7755
7755
7755
7755
7755
7755
7755
7755
7755
7755
7755
7755
7755
7755
7755
7755
7755
7755
7755
7755
7755
7755
7755
7755
7755
7755
7755
7755
7755
7755
7755
7755
7755
7755
7755
7755
7755
7755
7755
7755
7755
7755
7755
7755
7755
7755
7755
7755
7755
7755
7755
7755
7755
7755
7755
7755
7755
7755
7755
7755
7755
7755
7755
7755
7755
7755
7755
7755
7755
7755
7755
7755
7755
7755
7755
7755
7755
7755
7755
7755
7755
7755
7755
7755
7755
7755
7755
7755
7755
7755
7755
7755
7755
7755
7755
7755
7755
7755
7755
7755
7755
7755
7755
7679
7679
7679
7679
7679
7679
7679
7679
7679
7679
7679
7679
7679
7679
7679
7679
7679
7679
7679
7679
7679
7679
7679
7679
7679
7679
7679
7679
7679
7679
7679
7679
7679
7679
7679
7679
7679
7679
7679
7679
7679
7679
7679
7679
7679
7679
7679
7679
7679
7679
7679
7679
7679
7679
7679
7679
7679
7679
7679
7679
7679
7679
7679
7679
7679
7679
7679
7679
7679
7679
7679
7679
7679
7679
7679
7679
7679
7679
7679
7679
7679
7679
7679
7679
7679
7679
7679
7679
7679
7679
7679
7679
7679
7679
7679
7679
7679
7679
7679
7679
7679
7679
7679
7679
7679
7679
7679
7679
7679
7679
7679
7679
7679
7679
7679
7679
7679
7679
7679
7679
7679
7679
7679
7679
7679
7679
7679
7679
7679
7679
7679
7679
7679
7679
7679
7679
7679
7679
7679
7679
7679
7679
7679
7679
7679
7679
7679
7679
7679
7679
7679
7679
7679
7679
7679
7679
7679
7679
7679
7679
7679
7679
7679
7679
7679
7679
7679
7679
7679
7679
7679
7679
7679
7679
7679
7679
7679
7679
7679
7679
7679
7679
7679
7679
7679
7679
7679
7679
7679
7679
7679
7679
7679
7679
7679
7679
7679
7679
7679
7679
7679
7679
7679
7679
7679
7679
7679
7679
7679
7679
7679
7679
7679
7679
7679
7679
7679
7679
7679
7679
7679
7679
7679
7679
7679
7679
7679
7679
7679
7679
7679
7679
7679
7679
7679
7679
7679
7679
7679
7679
7679
7679
7679
7679
7679
7679
7679
7679
7679
7679
7679
7679
7679
7679
7679
7679
7679
7679
7679
7679
7679
7679
7679
7679
7679
7679
7679
7679
7679
7679
7679
7679
7679
7679
7679
7679
7679
7679
7679
7679
7679
7679
7679
7679
7679
7679
7679
7679
7679
7679
7679
7679
7679
7679
7679
7679
7679
7679
7679
7679
7679
7679
7679
7679
7679
7679
7679
7679
7679
7679
7679
7679
7679
7679
7679
7679
7679
7679
7679
7679
7679
7679
7679
7679
7679
7679
7679
7679
7679
7679
7679
7679
7679
7679
7679
7679
7679
7679
7679
7679
7679
7679
7679
7679
7679
7679
7679
7679
7679
7679
7679
7679
7679
7679
7679
7679
7679
7679
7679
7679
7679
7679
7679
7679
7679
7679
7679
7679
7679
7679
7679
7679
7679
7679
7679
7679
7679
7679
7679
7679
7679
7679
7679
7679
7679
7679
7679
7679
7679
7679
7679
7679
7679
7679
7679
7679
7679
7679
7679
7679
7679
7679
7679
7679
7679
7679
7679
7679
7679
7679
7679
7679
7679
7679
7679
7679
7679
7679
7679
7679
7679
7679
7679
7679
7679
7679
7679
7679
7679
7679
7679
7679
7679
7679
7679
7679
7679
7679
7679
7679
7679
7679
7679
7679
7679
7679
7679
7679
7679
7679
7679
7679
7679
7679
7679
7679
7679
7679
7679
7679
7679
7679
7679
7679
7679
7679
7679
7679
7679
7679
7679
7679
7679
7679
7679
7679
7679
7679
7679
7679
7679
7679
7679
7679
7679
7679
7679
7679
7679
7679
7679
7679
7679
7679
7679
7679
7679
7679
7679
7679
7679
7679
7679
7679
7679
7679
7679
7679
7679
7679
7679
7679
7679
7679
7679
7679
7679
7679
7679
7679
7679
7679
7679
7679
7679
7679
7679
7679
7679
7679
7679
7679
7679
7679
7679
7679
7679
7679
7679
7679
7679
7679
7679
7679
7679
7679
7679
7679
7679
7679
7679
7679
7679
7679
7679
7679
7679
7679
7679
7679
7679
7679
7679
7679
7679
7679
7679
7679
7679
7679
7679
7679
7679
7679
7679
7679
7679
7679
7679
7679
7679
7679
7679
7679
7679
7679
7679
7679
7679
7679
7679
7679
7679
7679
7679
7679
7679
7679
7679
7679
7679
7679
7679
7679
7679
7679
7679
7679
7679
7679
7679
7679
7679
7679
7679
7679
7679
7679
7679
7679
7679
7679
7679
7679
7679
7679
7679
7679
7679
7679
7679
7679
7679
7679
7679
7679
7679
7679
7679
7679
7679
7679
7679
7679
7679
7679
7679
7679
7679
7679
7679
7679
7679
7679
7679
7679
7679
7679
7679
7679
7679
7679
7679
7679
7679
7679
7679
7679
7679
7679
7679
7679
7679
7679
7679
7679
7679
7679
7679
7679
7679
7679
7679
7679
7679
7679
7679
7679
7679
7679
7679
7679
7679
7679
7679
7679
7679
7679
7679
7679
7679
7679
7679
7679
7679
7679
7679
7679
7679
7679
7679
7679
7679
7679
7679
7679
7679
7679
7679
7679
7679
7679
7679
7679
7679
7679
7679
7679
7679
7679
7679
7679
7679
7679
7679
7679
7679
7679
7679
7679
7679
7679
7679
7679
7679
7679
7679
7679
7679
7679
7679
7679
7679
7679
7679
7679
7679
7679
7679
7679
7679
7679
7679
7679
7679
7679
7679
7679
7679
7679
7679
7679
7679
7679
7679
7679
7679
7679
7679
7679
7679
7679
7679
7679
7679
7679
7679
7679
7679
7679
7679
7679
7679
7679
7679
7679
7679
7679
7679
7679
7679
7679
7679
7679
7679
7679
7679
7679
7679
7679
7679
7679
7679
7679
7679
7679
7679
7679
7679
7679
7679
7679
7679
7679
7679
7679
7679
7679
7679
7679
7679
7679
7679
7679
7679
7679
7679
7679
7679
7679
7679
7679
7679
7679
7679
7679
7679
7679
7679
7679
7679
7679
7679
7679
7679
7679
7679
7679
7679
7679
7679
7679
7679
7679
7679
7679
7679
7679
7679
7679
7679
7679
7679
7679
7679
7679
7679
7679
7679
7679
7679
7679
7679
7679
7679
7679
7679
7679
7679
7679
7679
7679
7679
7679
7679
7679
7679
7679
7679
7679
7679
7679
7679
7679
7679
7679
7679
7679
7679
7679
7679
7679
7679
7679
7679
7679
7679
7679
7679
7679
7679
7679
7679
7679
7679
7679
7679
7679
7679
7679
7679
7679
7679
7679
7679
7679
7679
7679
7679
7679
7679
7679
7679
7679
7679
7679
7679
7679
7679
7679
7679
7679
7679
7679
7679
7679
7679
7679
7679
7679
7679
7679
7679
7679
7679
7679
7679
7679
7679
7679
7679
7679
7679
7679
7679
7679
7679
7679
7679
7679
7679
7679
7679
7679
7679
7679
7679
7679
7679
7679
7679
7679
7679
7679
7679
7679
7679
7679
7679
7679
7679
7679
7679
7679
7679
7679
7679
7679
7679
7679
7679
7679
7679
7679
7679
7679
7679
7679
7679
7679
7679
7679
7679
7679
7679
7679
7679
7679
7679
7679
7679
7679
7679
7679
7679
7679
7679
7679
7679
7679
7679
7679
7679
7679
7679
7679
7679
7679
7679
7679
7679
7679
7679
7679
7679
7679
7679
7679
7679
7679
7679
7679
7679
7679
7679
7679
7679
7679
7679
7679
7679
7679
7679
7679
7679
7679
7679
7679
7679
7679
7679
7679
7679
7679
7679
7679
7679
7679
7679
7679
7679
7679
7679
7679
7679
7679
7679
7679
7679
7679
7679
7679
7679
7679
7679
7679
7679
7679
7679
7679
7679
7679
7679
7679
7679
7679
7679
7679
7679
7679
7679
7679
7679
7679
7679
7679
7679
7679
7679
7679
7679
7679
7679
7679
7679
7679
7679
7679
7679
7679
7679
7679
7679
7679
7679
7679
7679
7679
7679
7679
7679
7679
7679
7679
7679
7679
7679
7679
7679
7679
7679
7679
7679
7679
7679
7679
7679
7679
7679
7679
7679
7679
7679
7679
7679
7679
7679
7679
7679
7679
7679
7679
7679
7679
7679
7679
7679
7679
7679
7679
7679
7679
7679
7679
7679
7679
7679
7679
7679
7679
7679
7679
7679
7679
7679
7679
7679
7679
7679
7679
7679
7679
7679
7679
7679
7679
7679
7679
7679
7679
7679
7679
7679
7679
7679
7679
7679
7679
7679
7679
7679
7679
7679
7679
7679
7679
7679
7679
7679
7679
7679
7679
7679
7679
7679
7679
7679
7679
7679
7679
7679
7679
7679
7679
7679
7679
7679
7679
7679
7679
7679
7679
7679
7679
7679
7679
7679
7679
7679
7679
7679
7679
7679
7679
7679
7679
7679
7679
7679
7679
7679
7679
7679
7679
7679
7679
7679
7679
7679
7679
7679
7679
7679
7679
7679
7679
7679
7679
7679
7679
7679
7679
7679
7679
7679
7679
7679
7679
7679
7679
7679
7679
7679
7679
7679
7679
7679
7679
7679
7679
7679
7679
7679
7679
7679
7679
7679
7679
7679
7679
7679
7679
7679
7679
7679
7679
7679
7679
7679
7679
7679
7679
7679
7679
7679
7679
7679
7679
7679
7679
7679
7679
7679
7679
7679
7679
7679
7679
7679
7679
7679
7679
7679
7679
7679
7679
7679
7679
7679
7679
7679
7679
7679
7679
7679
7679
7679
7679
7679
7679
7679
7679
7679
7679
7679
7679
7679
7679
7679
7679
7679
7679
7679
7679
7679
7679
7679
7679
7679
7679
7679
7679
7679
7679
7679
7679
7679
7679
7679
7679
7679
7679
7679
7679
7679
7679
7679
7679
7679
7679
7679
7679
7679
7679
7679
7679
7679
7679
7679
7679
7679
7679
7679
7679
7679
7679
7679
7679
7679
7679
7679
7679
7679
7679
7679
7679
7679
7679
7679
7679
7679
7679
7679
7679
7679
7679
7679
7679
7679
7679
7679
7679
7679
7679
7679
7679
7679
7679
7679
7679
7679
7679
7679
7679
7679
7679
7679
7679
7679
7679
7679
7679
7679
7679
7679
7679
7679
7679
7679
7679
7679
7679
7679
7679
7679
7679
7679
7679
7679
7679
7679
7679
7679
7679
7679
7679
7679
7679
7679
7679
7679
7679
7679
7679
7679
7679
7679
7679
7679
7679
7679
7679
7679
7679
7679
7679
7679
7679
7679
7679
7679
7679
7679
7679
7679
7679
7679
7679
7679
7679
7679
7679
7679
7679
7679
7679
7679
7679
7679
7679
7679
7679
7679
7679
7679
7679
7679
7679
7679
7679
7679
7679
7679
7679
7679
7679
7679
7679
7679
7679
7679
7679
7679
7679
7679
7679
7679
7679
7679
7679
7679
7679
7679
7679
7679
7679
7679
7679
7679
7679
7679
7679
7679
7679
7679
7679
7679
7679
7679
7679
7679
7679
7679
7679
7679
7679
7679
7679
7679
7679
7679
7679
7679
7679
7679
7679
7679
7679
7679
7679
7679
7679
7679
7679
7679
7679
7679
7679
7679
7679
7679
7679
7679
7679
7679
7679
7679
7679
7679
7679
7679
7679
7679
7679
7679
7679
7679
7679
7679
7679
7679
7679
7679
7679
7679
7679
7679
7679
7679
7679
7679
7679
7679
7679
7679
7679
7679
7679
7679
7679
7679
7679
7679
7679
7679
7679
7679
7679
7679
7679
7679
7679
7679
7679
7679
7679
7679
7679
7679
7679
7679
7679
7679
7679
7679
7679
7679
7679
7679
7679
7679
7679
7679
7679
7679
7679
7679
7679
7679
7679
7679
7679
7679
7679
7679
7679
7679
7679
7679
7679
7679
7679
7679
7679
7679
7679
7679
7679
7679
7679
7679
7679
7679
7679
7679
7679
7679
7679
7679
7679
7679
7679
7679
7679
7679
7679
7679
7679
7679
7679
7679
7679
7679
7679
7679
7679
7679
7679
7679
7679
7679
7679
7679
7679
7679
7679
7679
7679
7679
7679
7679
7679
7679
7679
7679
7679
7679
7679
7679
7679
7679
7679
7679
7679
7679
7679
7679
7679
7679
7679
7679
7679
7679
7679
7679
7679
7679
7679
7679
7679
7679
7679
7679
7679
7679
7679
7679
